
Gurobi 10.0.2 (win64) logging started Fri Jun 21 03:40:31 2024

Set parameter LogFile to value "log/log_difficulty1_MNL_DESKTOP-S7OVCUR_9_16.txt"
Gurobi Optimizer version 10.0.2 build v10.0.2rc0 (win64)

CPU model: Intel(R) Core(TM) i7-10510U CPU @ 1.80GHz, instruction set [SSE2|AVX|AVX2]
Thread count: 4 physical cores, 8 logical processors, using up to 8 threads

Optimize a model with 2020 rows, 676 columns and 4612 nonzeros
Model fingerprint: 0xc5e30279
Variable types: 364 continuous, 312 integer (312 binary)
Coefficient statistics:
  Matrix range     [1e-03, 8e+02]
  Objective range  [1e+02, 6e+02]
  Bounds range     [1e+00, 1e+00]
  RHS range        [1e+00, 1e+00]
Found heuristic solution: objective -0.0000000
Presolve removed 224 rows and 104 columns
Presolve time: 0.03s
Presolved: 1796 rows, 572 columns, 4243 nonzeros
Found heuristic solution: objective 2320.5027752
Variable types: 308 continuous, 264 integer (264 binary)

Root relaxation: objective 1.595906e+04, 435 iterations, 0.00 seconds (0.00 work units)

    Nodes    |    Current Node    |     Objective Bounds      |     Work
 Expl Unexpl |  Obj  Depth IntInf | Incumbent    BestBd   Gap | It/Node Time

     0     0 15959.0557    0  160 2320.50278 15959.0557   588%     -    0s
H    0     0                    10457.325773 15959.0557  52.6%     -    0s
H    0     0                    13721.255857 15198.7241  10.8%     -    0s
     0     0 15198.7241    0  184 13721.2559 15198.7241  10.8%     -    0s
H    0     0                    13933.821720 15191.3039  9.02%     -    0s
     0     0 15191.3039    0  187 13933.8217 15191.3039  9.02%     -    0s
     0     0 15191.1156    0  188 13933.8217 15191.1156  9.02%     -    0s
H    0     0                    14160.890643 14917.6101  5.34%     -    0s
H    0     0                    14345.264090 14917.6101  3.99%     -    0s
     0     0 14917.6101    0  158 14345.2641 14917.6101  3.99%     -    0s
     0     0 14907.1137    0  145 14345.2641 14907.1137  3.92%     -    0s
     0     0 14906.0922    0  145 14345.2641 14906.0922  3.91%     -    0s
     0     0 14906.0922    0  146 14345.2641 14906.0922  3.91%     -    0s
H    0     0                    14677.648606 14906.0922  1.56%     -    0s
H    0     0                    14685.847742 14830.4955  0.98%     -    0s
     0     0 14830.4955    0  166 14685.8477 14830.4955  0.98%     -    0s
     0     0 14805.5310    0  154 14685.8477 14805.5310  0.81%     -    0s
     0     0 14801.9246    0  173 14685.8477 14801.9246  0.79%     -    0s
     0     0 14801.8431    0  170 14685.8477 14801.8431  0.79%     -    0s
     0     0 14790.6364    0  175 14685.8477 14790.6364  0.71%     -    0s
     0     0 14783.6581    0  179 14685.8477 14783.6581  0.67%     -    0s
     0     0 14783.5513    0  180 14685.8477 14783.5513  0.67%     -    0s
     0     0 14766.2114    0  175 14685.8477 14766.2114  0.55%     -    0s
     0     0 14765.9131    0  176 14685.8477 14765.9131  0.55%     -    0s
     0     0 14747.3699    0  173 14685.8477 14747.3699  0.42%     -    0s
     0     0 14746.4794    0  172 14685.8477 14746.4794  0.41%     -    0s
     0     0 14746.4794    0  173 14685.8477 14746.4794  0.41%     -    0s
     0     0 14735.9110    0  169 14685.8477 14735.9110  0.34%     -    0s
     0     0 14734.6762    0  170 14685.8477 14734.6762  0.33%     -    0s
     0     0 14734.0954    0  170 14685.8477 14734.0954  0.33%     -    0s
H    0     0                    14692.777248 14733.8458  0.28%     -    0s
     0     0 14733.8458    0  170 14692.7772 14733.8458  0.28%     -    0s
H    0     0                    14692.930548 14733.8458  0.28%     -    0s
     0     0 14732.7180    0  168 14692.9305 14732.7180  0.27%     -    0s
     0     0 14730.7993    0  126 14692.9305 14730.7993  0.26%     -    0s
     0     0 14730.7993    0  121 14692.9305 14730.7993  0.26%     -    0s
     0     0 14730.4939    0  121 14692.9305 14730.4939  0.26%     -    0s
H    0     0                    14705.716360 14730.4939  0.17%     -    0s
     0     0 14715.9335    0  118 14705.7164 14715.9335  0.07%     -    0s
     0     0 14707.0437    0  118 14705.7164 14707.0437  0.01%     -    0s

Cutting planes:
  Gomory: 13
  Implied bound: 12
  MIR: 44
  Flow cover: 96
  RLT: 58
  Relax-and-lift: 7
  BQP: 7

Explored 1 nodes (2256 simplex iterations) in 0.75 seconds (0.27 work units)
Thread count was 8 (of 8 available processors)

Solution count 10: 14705.7 14692.9 14692.8 ... 10457.3

Optimal solution found (tolerance 1.00e-04)
Best objective 1.470571636043e+04, best bound 1.470704371362e+04, gap 0.0090%
